Route #1: 6 51 16 63 23 56 49 24 18 50 25 55 31
Route #2: 10 38 65 11 66 59 14 53
Route #3: 17 12 40 3 44 32 9 39 72 58 26
Route #4: 67 46 8 7 35 19 54 13 57 15 27 52 34
Route #5: 4 45 29 48 5 37 20 70 60 71 36 69 21
Route #6: 47 61 22 64 42 41 43 1 62 28 74 30
Route #7: 33 73 2 68 75
Cost 735